c Random CNF formula
p cnf 10 42
10 7 -3 0
10 -4 3 0
7 9 5 0
9 5 1 0
-2 -3 -8 0
-8 4 -1 0
-4 2 -3 0
-4 1 9 0
3 -5 6 0
4 7 1 0
7 3 9 0
9 -5 -3 0
-10 6 -8 0
8 4 -1 0
2 7 5 0
-6 -3 2 0
-5 -4 -6 0
-4 10 9 0
4 -2 1 0
-9 3 5 0
4 -6 5 0
4 -9 -1 0
2 -9 -4 0
7 -10 -2 0
9 -10 1 0
1 -3 4 0
-10 8 -6 0
-6 10 1 0
2 -9 -7 0
-6 10 -9 0
5 10 -8 0
-7 -8 2 0
-7 6 4 0
-9 -4 6 0
1 8 9 0
-10 5 -9 0
-4 9 -1 0
3 -5 -8 0
-4 -2 6 0
7 4 -1 0
-4 1 10 0
4 2 10 0
